NAME : A-n55-k9.669060.tour
COMMENT : Length = 669060
COMMENT : Found by LKH [Keld Helsgaun] Sun Dec 17 18:42:38 2017
TYPE : TOUR
DIMENSION : 63
TOUR_SECTION
1
5
8
43
32
27
47
21
60
11
12
16
3
52
57
37
38
15
4
18
35
34
59
6
54
41
17
39
48
40
50
61
9
22
13
33
62
31
23
20
28
29
14
55
56
26
42
24
53
25
45
58
30
51
49
46
2
63
19
7
44
36
10
-1
EOF
